ID,Delay,Karma,Average,Stories,Comments,About,Created,Updated
ZoF,,669,2.09091,0,359,,1373170099,1452473532
ZoFreX,,4436,2.90909,26,1591,"I like giving advice out and helping people, but I'm not always the best at communicating my intent. So, unless otherwise explicitly stated, if I offer my services on HN, I am not trying to make money, but just want to help people out for free because I'm such a nice person.<p>You can contact me via my username at Google's email service, or via anything at my username dot com :)",1272168810,1452867168
ZoZoBee,0,-16,0.0,0,0,,1434069059,1453169860
Zoasterboy,0,34,0.0,2,6,http://myspace.com/zoasterboy,1234393757,1452887175
Zodiakos,0,10,0.0,0,2,,1317151122,1452897091
Zoe-Slater,0,1,0.0,0,1,,1377091053,1452915661
ZoeB,0,22,0.0,0,3,"Musician, writer, programmer.",1355230874,1452908012
ZoeZoeBee,0,79,0.0,0,0,,1436931169,1453171230
Zoe_Brain,0,3,0.0,0,1,,1241086198,1452887801
Zoejonel,0,1,0.0,0,1,,1391810712,1452921306
Zoepfli,0,171,4.0,3,48,,1362421906,1452910428
ZofiaKorcz,0,1,0.0,0,1,"Front-end developer who wants to make games.<p>http://zofiakorcz.pl",1385295809,1452919449
ZogStriP,,3,0.0,0,1,,1299414210,1450207814
Zoggy32,0,1,0.0,0,1,,1406019360,1452927822
ZogoTech,0,1,0.0,1,0,,1375383084,1452915229
Zogulous,0,1,0.0,0,0,,1438406298,1453171207
Zohaibtarar,0,10,0.0,0,0,,1439770929,1453171589
Zohrak,0,3,0.0,8,1,http://data.story.lu/,1296199730,1452892465
Zoiper,0,1,0.0,0,0,,1435064824,1453170143
ZoliErdos,0,1,0.0,0,1,,1323109760,1452898710
Zolmeister,0,1,0.0,1,0,,1333859116,1452901515
Zolmeister0,,115,0.0,49,13,"http://zolmeister.com<p>zolmeister0@gmail.com<p>[ my public key: https://keybase.io/zolmeister; my proof: https://keybase.io/zolmeister/sigs/Mc8JmjwHw4JhJxWbwHdPvtY3pSlPmwnf5EYDzti3n1k ]",1347170658,1450207814
Zolmeister1,0,1,0.0,1,0,,1340734745,1452903767
Zolo,0,2,0.0,0,1,,1319654427,1452899533
Zolomon,,1164,2.52273,41,135,http://zolomon.com,1290942396,1452001991
Zolrath,,5,0.0,0,5,,1327793597,1450207814
Zolt,0,26,0.0,0,11,"Husband, Father, CEO, Christian, Runner, Volunteer.",1221231814,1452887114
ZoltonVonMises,0,6,0.0,0,5,,1325716120,1452899344
Zomad,,223,0.0,3,0,,1409622656,1450207814
Zomb1,0,1,0.0,1,3,,1313443779,1452895902
ZombieCoaster,0,2,0.0,0,1,,1268703491,1452889377
ZombieCodeKill,0,2,0.0,0,0,,1434233135,1453169914
ZombieDisco,0,4,0.0,0,1,,1340294623,1452903596
ZombieElvis,0,2,0.0,0,2,,1398936877,1452923973
ZombieFeynman,,-7,0.0,0,1,,1306773936,1450207814
ZombieKush,0,-3,0.0,0,1,,1261325081,1452888684
ZombiePartie,,2,0.0,3,0,,1401797888,1450207814
ZombieUnicorn,0,1,0.0,0,0,,1450032629,1453174525
Zombieball,,323,1.70455,6,183,,1333137886,1452870077
Zombotany,0,1,0.0,0,1,,1412165213,1452932387
Zomgitsduke,0,1,0.0,0,1,,1324145759,1452898953
ZoneGhost,0,7,0.0,0,0,"A lover of knowledge, with a passion for music production, programming, and beautiful processes.",1411504993,1453165890
Zoned,0,1,0.0,1,0,,1408551410,1452929584
Zoneman,0,8,0.0,0,0,,1406217293,1453172544
Zoniz,0,1,0.0,1,0,,1323940920,1452898908
Zonker,0,3,0.0,0,1,,1336520131,1452902858
Zonozi,0,1,0.0,5,1,"Social media enthusist",1323280702,1452901187
Zoobu,0,2,0.0,0,0,,1432053892,1453169257
Zookey,,6,0.0,46,1,,1338215820,1450207814
ZoomCharts,0,6,0.0,0,0,,1424734724,1453166528
ZoomZoomZoom,,2,0.0,0,4,,1419413693,1450267840
Zoomla,0,113,1.45238095238095,5,155,,1376672932,1452915572
Zoonie,0,-1,0.0,0,1,,1363908529,1452911268
ZoopUSA,0,3,0.0,1,0,,1362904750,1452910679
Zooper,0,9,0.0,0,0,,1426616879,1453169065
Zoophy,0,-16,0.0,4,14,,1351686661,1452907024
Zoot,,2,0.0,0,2,,1391029375,1450207814
ZooteoInc,0,9,0.0,4,3,,1308013705,1452894329
Zopieux,,8,0.0,0,5,,1334260323,1450207814
Zor,0,2,0.0,0,5,,1354851976,1452907820
ZorGleH,0,1,0.0,1,0,,1359652567,1452909394
ZorgLightyear,0,-3,0.0,0,0,,1431279379,1453168999
ZoroZero,0,3,0.0,0,0,,1427189562,1453167454
Zoro_iraq,0,1,0.0,1,0,,1312842086,1452895689
Zoshef007,0,1,0.0,2,0,"I have nothing to say about me.",1337118781,1452902981
ZosiaFo,0,3,0.0,0,0,,1441700972,1453172187
Zostrianos,0,1,0.0,1,0,,1397846134,1452923363
Zot95,0,34,0.0,0,12,,1242840392,1452888474
Zotabite,,11,0.0,0,5,,1396675863,1450207814
ZouheirAbdallah,0,2,0.0,0,1,,1373534586,1452914682
Zoxo,0,9,0.0,1,2,,1391171614,1452922429
zOrg-2013,0,2,0.0,0,1,,1381862317,1452917315
zo,0,3,0.0,0,1,,1203990148,1203990148
zo1,,1312,2.04545,24,1284,,1396535548,1452781734
zo65aLVnK,0,1,0.0,0,5,,1367548040,1452912102
zo7,0,10,0.0,0,0,,1427984626,1453170227
zoai,0,1,0.0,3,0,,1361971835,1452910324
zoax01,0,1,0.0,1,0,,1315577943,1452896489
zoba,,936,4.09091,16,181,http://services.nexodyne.com/email/customicon/T2TQCBZF5.thqDtzI4c8/bH2JalI%3D/000000/ffffff/000000/0/image.png,1247421479,1450207814
zobe,0,1,0.0,2,0,,1307010854,1452894106
zobied,0,1,0.0,0,0,,1341255573,1453170659
zobreus,0,6,0.0,0,0,,1425409838,1453168050
zobront,,93,0.0,10,6,,1369231089,1450207814
zobzu,,4327,1.45455,65,2291,,1309137650,1452700983
zocent886,0,1,0.0,1,0,,1336720149,1452902911
zocoi,,3,0.0,2,5,,1347739477,1450207814
zocoxman,0,1,0.0,1,0,,1304638401,1452893598
zodPod,0,46,0.0,0,0,,1436541954,1453170659
zodester,,4,0.0,2,7,,1365000867,1450207814
zodiac,,912,1.75,18,173,"Just your average fixed point combinator<p>www.xuanji.li<p>[ my public key: https://keybase.io/xuanji; my proof: https://keybase.io/xuanji/sigs/YyOVzG7h-Ip1eEcZdfnsvWckOKvnM-6b09PfP3q-9Y0 ]<p>hi",1353233573,1452858887
zodiac1111,,-3,0.0,0,4,,1345206782,1450207814
zodiac23,0,4,0.0,0,1,,1380563898,1452916938
zodiakzz,,74,0.0,0,42,,1415952019,1451383729
zodman,,4,0.0,2,4,,1299701399,1450207814
zodmaner,0,17,0.0,0,0,,1318686992,1453173610
zodo123,,104,0.0,3,1,,1372871316,1450207814
zodraz,0,1,0.0,0,1,,1391796887,1452928096
zodttd,0,33,0.0,0,16,,1306816001,1452894027
zodvik,,30,0.0,1,20,"old account @nrbafna\nemail - zodvik@gmail.com",1389613072,1450207814
zodyes45,0,1,0.0,1,0,,1311948654,1452895451
zodzwilson,0,1,0.0,1,0,,1317365635,1452897187
zoe,0,1,0.0,1,0,,1312199674,1452895452
zoe99,0,1,0.0,1,0,,1308983379,1452894473
zoea,0,2,0.0,0,1,,1364921918,1452911564
zoec1234,0,1,0.0,0,1,,1394759455,1452922264
zoechi,,5,0.0,0,4,,1384419525,1450207814
zoed93,0,1,0.0,0,0,,1439197062,1453171422
zoedebtstory,0,1,0.0,1,0,,1322872120,1452898664
zoeer,0,1,0.0,2,0,"I'm interested in everything on the internet. It always bring me many happy and knowledge. I like to share my interests with whom I don't know.   I have been  to various websites, and I would register an account. and leave some information to show who I am. I have been a golfer since 1987.  This is not an enough long experience, but I have played with many many top golf clubs. and  are my favorite clubs. No matter you believe or not , have a try, then you believe. If you don't agree with me send me an email. I promise I would reply.",1317093520,1452897090
zoekschiffer,0,2,0.0,4,0,,1370975659,1452913626
zoelle,,9,0.0,0,2,,1346174407,1450207814
zoemadigan,0,1,0.0,0,0,,1317075528,1453170179
zoemeiresort,0,1,0.0,1,0,,1304598865,1452893598
zoemv,0,1,0.0,2,0,,1317834145,1452897385
zoenicole,0,0,0.0,0,0,,1438531103,1453171230
zoenolan,0,1,0.0,0,0,zoenolan.org,1419862609,1453168224
zoenos,0,1,0.0,0,1,,1337811552,1452903112
zoepants,0,3,0.0,1,0,,1324328526,1452898953
zoerb,,1,0.0,0,1,,1322768139,1450207814
zoesummers,,6,0.0,26,0,,1408638437,1450207814
zoesummers_j,0,1,0.0,0,0,,1420649555,1453165040
zoevkay,0,42,0.0,0,1,,1343364516,1452904884
zoey564,0,1,0.0,0,1,,1320324047,1452898236
zoeyhudson,0,1,0.0,0,1,,1308267803,1452894329
zoeymckenzie,,0,0.0,1,5,,1362004644,1450207814
zoffix222,0,72,0.0,0,0,,1444056398,1453172831
zofo,0,1,0.0,1,0,,1366906996,1452911952
zofp,0,1,0.0,0,0,,1443885915,1453172805
zoftwhere,0,1,0.0,1,0,,1389252255,1452919946
zogby,0,1,0.0,0,1,,1394576702,1452924205
zogieosagie,,11,0.0,5,1,,1376204584,1450207814
zogwall,0,2,0.0,0,2,,1333572335,1452901400
zogwarg,0,12,0.0,0,0,,1433750308,1453169744
zoha,0,1,0.0,1,0,,1349768886,1452906575
zohaibr,,432,0.0,10,17,,1271092171,1450207814
zohairy,,1,0.0,0,1,,1324246892,1450207814
zohansinha11,0,1,0.0,0,0,,1427117172,1453167431
zoharalon,0,1,0.0,1,0,,1338994905,1452908317
zohararad,,3,0.0,2,0,,1357816984,1450207814
zoharbabin,,3,0.0,1,0,,1352830994,1450207814
zoharj,,10,0.0,4,7,,1304047310,1450207814
zoharliran,,1,0.0,0,1,,1385335121,1450207814
zohebv,,434,4.0,0,95,,1288096032,1450207814
zohoinvoice,0,1,0.0,1,0,,1311068755,1452895124
zoidb,,146,2.38095,6,78,,1336847258,1450268168
zoidberg_md,0,2,0.0,0,1,,1315332232,1452896423
zoidburg,0,1,0.0,1,0,,1307592384,1452894229
zoila,0,1,0.0,1,0,,1341950566,1452904424
zoioz,0,1,0.0,0,0,,1426246191,1453167158
zoips,,30,0.0,0,29,,1306540401,1450207814
zoj_bad,,7,0.0,1,5,,1387121582,1450207814
zojaku,0,1,0.0,0,0,,1444737302,1453173118
zok3102,0,4,0.0,0,0,"Product at TIBCO",1440952870,1453171941
zok91,0,3,0.0,0,0,,1427272911,1453170552
zoka,0,63,0.0,6,1,,1290392360,1452891526
zokat,,7,0.0,4,1,,1383725116,1450207814
zokiboy,,68,2.0,5,40,twitter.com/zokiboy,1220356988,1450207814
zokier,,4883,2.18182,8,2303,"<i>Torste Aikio</i><p>Feel free to mail me at Gmail.",1244022867,1452737344
zokj,0,1,0.0,0,2,,1343439960,1452914414
zoko,0,3,0.0,0,1,,1356475081,1452909844
zokunei,0,1,0.0,0,1,,1409162957,1452929945
zol,,23,0.0,5,5,,1254447755,1450207814
zolaperry,0,1,0.0,3,0,,1328612452,1452899883
zolbatar,,4,0.0,0,4,"UK based developer.",1349770677,1450207814
zolchy,0,1,0.0,0,1,,1296548779,1452892402
zolco1,0,1,0.0,1,0,,1381178793,1452917095
zoldar,0,1,0.0,2,1,,1295260011,1452892097
zolder,,29,0.0,7,5,,1376032289,1450207814
zolfaghari,0,-12,0.0,0,1,,1329406170,1452900071
zolihonig,,2,0.0,0,3,,1346430217,1450207814
zoll,0,1,0.0,0,1,,1328111154,1452899743
zollercopter,0,1,0.0,0,1,,1338210684,1452903239
zollo,0,2,0.0,0,1,,1325752760,1452899344
zolmeister01,0,1,0.0,0,0,,1359125146,1453175236
zoloff,0,1,0.0,0,1,,1348156453,1452909844
zoloff1,,2,0.0,0,2,,1401939352,1450207814
zolokar,0,1,0.0,0,0,,1373868035,1453169140
zolotarev,,1,0.0,2,1,"Im curious about programming. Passionately curious.\nhttps://www.romanzolotarev.com",1325660267,1450207814
zolotov,0,1,0.0,0,0,,1387218129,1453167835
zolpidemwithout,0,1,0.0,1,0,,1329218983,1452900033
zoltan,,1,0.0,3,0,,1382903173,1450207814
zoltan99,0,1,0.0,0,1,,1273118400,1452889212
zoltancsaki,0,6,0.0,1,1,,1251225611,1452889012
zoltandulac,0,2,0.0,1,0,,1366717222,1452911874
zoltanl,0,1,0.0,1,0,,1330641004,1452907085
zoltar92,,85,1.08,19,42,"Co-founder at BeatDeck;\nYCW13",1351387997,1450207814
zoltarSpeaks,,37,0.0,6,9,"Founder of madewithsisu.com and developer at Lostmy.name.",1327482582,1450207814
zoltarburger,0,1,0.0,0,1,,1354513909,1452908746
zoltz,,137,1.7619,21,42,,1190627521,1443403203
zombees,0,52,0.0,0,0,,1436532851,1453170645
zombie31,0,1,0.0,1,0,,1309520069,1452894620
zombie_hitler,0,4,0.0,2,4,,1367084933,1452912909
zombie_will,0,2,0.0,0,0,,1248626040,1452888235
zombieburger,0,4,0.0,1,0,,1334561897,1452902073
zombiehands,0,2,0.0,0,1,"E-concept developer. Likes Bodyhacking, mindhacking, social engineering, technology history, philosophy of science and system architecture.",1327412735,1452899631
zombielifestyle,0,-4,0.0,1,12,,1322913920,1452898664
zombieprocess,0,7,0.0,0,0,,1425933536,1453168687
zombies,0,1,0.0,2,0,,1329267236,1452900071
zombiesandbacon,0,4,0.0,14,0,,1254331371,1452888374
zombiestartup,0,1,0.0,1,0,,1402929219,1452925800
zombination,0,4,0.0,0,0,,1427959255,1453167755
zombinator,0,-2,0.0,0,1,,1339055684,1452903391
zombio,0,591,1.0,18,51,,1368765255,1452912589
zombition,0,4,0.0,0,0,https://www.zombition.com/,1449528324,1453174386
zombo,0,58,0.0,1,0,,1192165207,1192165207
zombocom,0,1,0.0,0,1,,1288135164,1452890369
zombocomm,0,4,0.0,0,1,,1350311957,1452906723
zombodb,0,26,0.0,0,0,,1437368225,1453170873
zombor,0,3,0.0,1,1,,1262410409,1452904492
zombrano,0,4,0.0,0,0,,1422657764,1453165830
zomby,0,10,0.0,0,1,,1337522478,1452903053
zomfg,0,2,0.0,1,0,"ruby/js developer based in brooklyn",1297922200,1452892403
zomg,,25,0.0,0,27,"technologist, entrepreneur and product manager interested in web/medical technologies, audio, cars, boating and craft beer.<p>jpessa@gmail.com",1324655139,1451403172
zomgbbq,,162,3.44828,2,46,,1323289465,1452839693
zomgleakz,0,2,0.0,0,0,,1440845947,1453171923
zomgs,0,2,0.0,1,1,,1352467272,1452907235
zomirsi,0,1,0.0,0,1,,1406722637,1452928255
zomirza,0,1,0.0,1,0,,1298061153,1452892498
zomlard,0,6,0.0,1,4,,1381386379,1452922098
zomorod,0,2,0.0,1,2,,1363665320,1452910955
zomtorg,0,1,0.0,0,0,,1432570724,1453169386
zomzom,0,2,0.0,0,2,,1370459268,1452913338
zona2010,0,1,0.0,1,0,,1339442373,1452903452
zonachi,0,1,0.0,1,0,,1384172341,1452918382
zonarking,0,1,0.0,1,0,,1323804350,1452898858
zonaterbaru,0,1,0.0,4,0,,1318772817,1452897738
zond,0,14,0.0,0,12,,1360137511,1452909590
zone,,2,0.0,0,2,,1309435448,1450207814
zone2,0,7,0.0,2,16,,1286510012,1452890226
zone411,,685,2.51163,16,77,zone411@outlook.com,1281703743,1452097322
zonedelivery,0,1,0.0,5,0,,1334905347,1452902259
zoneinfinite,0,7,0.0,0,8,,1344533975,1452905182
zonemash,0,1,0.0,0,1,,1241641088,1452887801
zonenetplus,,1,0.0,0,1,,1373165896,1450207814
zonengager,0,1,0.0,1,1,"Name - Rajiv Walia",1360770145,1452910479
zoneo,0,1,0.0,0,0,,1436579103,1453170673
zoner,,32,0.0,5,37,,1290805683,1452192232
zongitsrinzler,,138,0.0,9,56,,1376028626,1452846813
zongqfff,0,1,0.0,2,0,,1346828279,1452907392
zoni,,1,0.0,1,0,,1390861423,1450207814
zonito,0,2,0.0,0,0,,1441380269,1453172600
zonk,0,1,0.0,0,1,,1390366320,1452920411
zonked,0,10,0.0,1,1,,1290905925,1452891611
zonkee,0,0,0.0,0,2,,1317321063,1452897529
zonkeety,0,1,0.0,1,0,,1305718547,1452893759
zonkerton,,2,0.0,0,1,,1387772030,1450207814
zonkey,0,14,0.0,0,9,,1354308603,1452911456
zonoob,0,-1,0.0,0,4,,1332990093,1452901145
zonotope,,759,0.0,64,2,,1330638373,1450207814
zonum,0,2,0.0,0,1,,1379522421,1452916579
zonyitoo,0,2,0.0,0,0,,1434814281,1453171762
zonywhoop,0,1,0.0,0,0,,1451149441,1453174791
zonzo,,3,0.0,0,2,,1417449178,1450267840
zoo,,3,0.0,0,2,"object-oriented, unix-friendly, data-generating, carbon-consuming, nitrogen-emitting, chain-degreasing, cheese-nomnom&#x27;ing dweeb with a disappointingly-fictional appetite for destruction",1347667929,1450207814
zoo1,0,1,0.0,0,0,,1431731968,1453169758
zoobab,,4,0.0,2,0,,1393605342,1450207814
zoobear,0,1,0.0,0,1,,1404394491,1452926574
zoober,0,4,0.0,0,1,,1380421432,1452916938
zoobert,,457,1.65116,4,76,"I am a pythonista geek. \nI created Gmvault a tool to backup your Gmail account.\nhttp://gmvault.org<p>You can contact me on twitter @zoobert or via email guillaume(dot)aubert(at)gmail(dot)com",1304692586,1450207814
zoodle,,14,0.0,14,2,,1391151127,1452220792
zoodlenote,0,2,0.0,0,1,,1347812570,1452906134
zooey,0,288,1.0,43,34,,1271069124,1452889111
zooka2,0,12,0.0,0,6,,1376181075,1452915473
zookatron,0,2,0.0,0,1,,1370982085,1452914737
zooko,0,86,0.0,2,14,,1207248491,1207248491
zooko2,0,4,0.0,1,1,,1305519908,1452893759
zooko3,0,1,0.0,0,0,,1438744986,1453171316
zooko_LeastAuth,0,54,0.0,0,14,,1368317913,1452912297
zooli,,2,0.0,1,0,,1401137658,1450267840
zooly,0,1,0.0,0,0,,1439236653,1453171436
zoom,,-12,0.0,0,21,,1275383436,1450207814
zoom1234,0,1,0.0,1,0,,1313043545,1452895755
zoom6628,,1,0.0,0,2,,1245035221,1450207814
zoom9933,0,1,0.0,1,0,,1332851953,1452901076
zoomactive,0,1,0.0,1,0,,1316022106,1452896588
zoomboy,0,291,0.0,0,0,,1256670422,1452888440
zoombridal,0,1,0.0,2,0,,1318676596,1452897671
zoomerang,,201,2.90909,1,67,,1391483000,1450207814
zoomfactor,0,1,0.0,1,0,,1321446269,1452898448
zoomi,0,0,0.0,4,1,,1336113286,1452902681
zoomix,0,1,0.0,0,0,,1371041555,1453167232
zoomx123,0,1,0.0,1,0,,1305626140,1452893759
zoomzoom,,362,3.0,14,150,,1268921184,1450207814
zoomzoom83,0,1,0.0,0,2,,1236844273,1452888928
zoooz_albalushi,0,1,0.0,0,1,,1390095866,1452920340
zoop,,82,0.0,0,24,,1314899864,1450207814
zoopertrip,0,1,0.0,0,1,,1237007804,1452887236
zoopla,0,1,0.0,1,0,"Zoopla.co.uk is the UKs most comprehensive property website, focused on empowering consumers with the resources they need to make better-informed property decisions. Launched in 2008, we are the fastest growing property website in the UK.",1323904240,1452898908
zoopla_co_uk,0,1,0.0,1,0,,1323947582,1452898908
zooriver,0,1,0.0,2,1,,1328271056,1452899786
zoorroo,0,1,0.0,2,3,,1283187026,1452889908
zooso,,71,0.0,34,30,"hacker & mildly confused...",1414737218,1450207814
zoostr,0,2,0.0,1,0,,1342435083,1452904586
zootam,0,1,0.0,0,0,,1431898011,1453169200
zootar,,1856,3.1,33,46,,1283748302,1450207814
zooted,0,2,0.0,0,0,,1260232095,1452888647
zooteo,0,8,0.0,1,4,,1302731425,1452893324
zooters,0,1,0.0,1,0,,1296647066,1452892217
zootilitytools,0,1,0.0,0,0,,1445267192,1453173183
zootm,,129,0.0,0,51,"Let&#x27;s see if this service is fun: http://www.hackernewsers.com/users/zootm.html",1262442511,1450207814
zootsuiter,0,2,0.0,0,1,,1334940648,1452902316
zoottoot23,0,7,0.0,1,0,,1323818048,1452907626
zoowar,0,8972,1.20454545454546,1085,471,,1288579966,1452890491
zooz,,20,0.0,8,10,,1319015827,1450207814
zoozy,0,1,0.0,0,1,,1374329275,1452914922
zop1997,0,1,0.0,1,0,,1322969056,1452898709
zopa,,66,0.0,1,36,,1327974512,1450207814
zopf,,12,0.0,3,14,,1303841080,1450207814
zopieuse,0,1,0.0,1,0,,1397432815,1452923063
zopilote,,1,0.0,0,1,,1419620147,1450267840
zopppo,,10,0.0,0,4,,1339019265,1450891650
zopticity,0,288,0.813953488372093,40,50,,1299866506,1452892672
zopyx01,0,2,0.0,0,1,,1385358516,1452918986
zora,0,1,0.0,1,0,,1322057132,1452898518
zoradude5,0,1,0.0,0,1,,1292007112,1452891888
zoran,0,1,0.0,0,1,,1369255953,1452912781
zoran119,0,1,0.0,0,0,,1438757045,1453173598
zorancomb,0,2,0.0,7,0,,1315612909,1452897091
zorander,0,2,0.0,0,5,,1241430115,1452887906
zorange,0,2,0.0,0,1,,1373982125,1452914804
zoras,0,3,0.0,1,0,,1348680810,1452910264
zoratu,0,1,0.0,0,0,,1434696582,1453170057
zorba,0,109,0.0,0,0,,1420906711,1453165122
zorback,0,3,0.0,1,0,,1263720421,1452888767
zorbadgreek,0,2,0.0,0,0,"Southern Greek Seattleite. Software, tech, music, arts, culture geek. PM on new apps/services at Amazon. Former PM at Microsoft (Xbox, Office Labs, SharePoint).",1431363347,1453169721
zorbash,,7,0.0,2,5,,1354323508,1450207814
zorbis,0,1,0.0,1,0,,1333054252,1452901187
zorbo,,429,4.47727,0,133,,1334585711,1450207814
zorceta,0,2,0.0,0,0,"[ my public key: https://keybase.io/zorceta; my proof: https://keybase.io/zorcet\na/sigs/ZU9pat_1xSWLAAh7MJibzs8hN3EPLLX8IGYkXnYzJn4 ]",1433340547,1453169635
zordak,,2,0.0,1,1,,1390394717,1450207814
zoren,,10,0.0,0,6,,1390852382,1450207814
zorf,0,26,0.0,0,0,,1422349248,1453171316
zorg,0,1,0.0,0,1,,1324643597,1452899111
zorg_bacon,0,2,0.0,0,1,,1329262377,1452900071
zorgium,0,1,0.0,0,1,,1407148104,1452928552
zoricson,0,1,0.0,1,0,,1311765695,1452895373
zorilla,0,1,0.0,1,0,,1293656180,1452891993
zork,0,2,0.0,1,0,,1337429772,1452903053
zorka,0,1,0.0,1,0,,1342028160,1452904492
zorked,,1814,3.52273,30,209,,1300716902,1452799052
zorker,0,1,0.0,0,1,,1392736574,1452921603
zorkerman,0,6,0.0,0,10,,1246468993,1452889246
zorkin,0,1,0.0,0,0,,1355180651,1453175215
zorkme,0,5,0.0,0,4,,1201090322,1201090322
zorkos,0,5,0.0,0,0,,1450649423,1453174687
zorlem,,641,3.29545,25,93,"Consultant with extensive operational and architectural experience in MySQL, PostgreSQL, and System Administration (spiced with DevOps lately).<p>I like debugging, drilling for the root cause, and solving problems.<p>Improving the velocity of an organization, building elegant solutions and systems fascinates me. Anything that has to do with high performance, scalability and high availability is of particular interest.<p>I like performing optimization and refactoring of applications and databases so they can run well with less than 2/3 of the hardware.<p>If you need to get in touch with me use my HN username @gmail.com",1331652571,1450207814
zorlon,0,-3,0.0,0,1,,1321031209,1452898376
zorn,0,1,0.0,1,0,,1379673048,1452916672
zorn09,0,1,0.0,0,1,,1397883583,1452923363
zornthewise,0,18,0.0,0,0,,1426550272,1453167253
zorobinky,0,1,0.0,4,0,,1318827839,1452897883
zorpner,,1484,4.34091,38,259,"Up for coffee in SF anytime.<p>zorpner AT gmail",1361822147,1450848796
zorrb,,164,0.0,1,43,,1399049314,1450664294
zorro,0,1,0.0,0,1,,1270884555,1452889111
zorroX,0,1,0.0,2,0,,1288517031,1452890491
zorrord,0,1,0.0,1,0,,1381481936,1452917202
zorrored,0,1,0.0,0,0,,1413619539,1453173354
zorroslade,0,1,0.0,0,1,,1311681728,1452903053
zorse,,15,0.0,11,6,,1375974074,1450207814
zorta,0,1,0.0,0,1,,1400080750,1452924375
zorth,0,2,0.0,0,0,,1433348384,1453169646
zorze,,3,0.0,0,1,"I specialize in generality",1399557018,1450207814
zos,,14,0.0,0,5,,1372159456,1450207814
zosegal,,124,0.0,11,14,,1319864816,1450557723
zosi,0,96,0.0,0,11,,1256237911,1452888609
zosia,0,1,0.0,1,1,,1342602538,1452904654
zosima,,11,0.0,0,15,,1196602699,1450207814
zosimos000,0,1,0.0,1,0,,1343211487,1452904814
zosimus,0,126,0.0,8,1,"Entrepreneur and storyteller.",1341535207,1452904250
zoskia,,2,0.0,4,3,,1287988809,1450207814
zoso1986,,1,0.0,1,0,,1348683049,1450207814
zotez,0,1,0.0,0,0,,1430680953,1453168744
zotovas,,28,0.0,20,11,www.linkedin.com/in/alexzotov,1377526184,1450207814
zotron,0,1,0.0,0,2,,1294000183,1452892042
zotz,0,2500,2.0,55,133,,1320618497,1452898269
zou73782qn,0,1,0.0,1,0,,1317201257,1452897187
zoudini,0,32,1.0,2,30,"zaki [dot.] rahaman [at] gmail",1256779707,1452889775
zouhair,,137,2.0,0,90,,1227752469,1452400608
zouhairmaj,,1,0.0,0,1,,1411485845,1450207814
zoukiny611,,4,0.0,1,0,,1362693014,1450207814
zouko,,103,0.0,18,0,,1311877564,1450207814
zoul,,1091,3.65909,11,219,zoul.cz,1293229371,1452691121
zouna214,0,1,0.0,0,1,,1345768317,1452905507
zouppen,0,2,0.0,0,2,,1405171186,1452927100
zout,,1,0.0,0,7,,1330327027,1452763530
zoutianya,0,1,0.0,1,0,,1338910504,1452903362
zovax,0,2,0.0,1,0,,1359929633,1452909530
zovig23,0,2,0.0,0,0,"Tech Entrepreneur. Passionate about startups and helping finding a cure for Parkinson&#x27;s Disease",1428840550,1453168095
zowch,,11,0.0,0,7,,1357233383,1450207814
zowens1190,0,9,0.0,0,5,"Student of Life, Kubrick, and Radiohead.\nCan't go a day without coffee or waxing ambitiously.\nLast Year was the Year of Yes. 2012 is the Year of Do It Now.<p>Words I Live By:\nIf it can be anyone, it can be you.\nEmpathy for others, Legacy for yourself.\nWhat is there but a dream?",1327182636,1452899883
zowers,0,1,0.0,0,0,"software engineer",1428565450,1453169317
zoxy,0,1,0.0,2,0,,1334300627,1452901707
zoybert,0,2,0.0,0,0,,1430062161,1453168476
zoyo,0,-7,0.0,0,0,,1443118613,1453172588
zoyth,0,16,0.0,1,3,,1175025884,1175025884
zoz,,6,0.0,0,3,,1312539723,1450207814
zoz_,0,1,0.0,0,0,,1426446289,1453167359
zoza,0,9,0.0,0,0,,1435426895,1453170252
zozoapps,0,2,0.0,1,0,,1368718467,1452912589
zozu,0,10,0.0,1,17,,1362755483,1452910679
